data/solutions/recovery/wellformed/moderate/binding/wellformed_moderate_instance76/46.sol
Elapsed time: 0.03
Upper bound: 5293.0
Planning weighted value: 256622.0
C[0]=5293.0
C[1]=1825.0
C[2]=1820.0
C[3]=343.0
C[4]=0.0
C[5]=0.0
y[0]=0
y[1]=3
y[2]=1
y[3]=0
y[4]=0
y[5]=1
y[6]=1
y[7]=0
y[8]=0
y[9]=1
y[10]=0
y[11]=0
y[12]=0
y[13]=0
y[14]=0
y[15]=2
y[16]=2
y[17]=2
y[18]=3
y[19]=0
